(set-logic QF_S)
(declare-fun var0 () String)
(assert (RegexIn var0 (RegexConcat (RegexUnion (RegexStar (Str2Reg "00")) (RegexStar (Str2Reg "111"))) (RegexConcat (RegexPlus (RegexStar (Str2Reg "222"))) (RegexConcat (RegexStar (RegexPlus (Str2Reg "33"))) (RegexConcat (RegexUnion (RegexStar (Str2Reg "444")) (RegexStar (Str2Reg "55"))) (RegexConcat (RegexUnion (RegexStar (Str2Reg "666")) (RegexStar (Str2Reg "777"))) (RegexConcat (RegexUnion (RegexStar (Str2Reg "888")) (RegexStar (Str2Reg "999"))) (RegexConcat (RegexPlus (RegexPlus (Str2Reg "a"))) (RegexConcat (RegexPlus (RegexPlus (Str2Reg "bb"))) (RegexConcat (RegexUnion (RegexPlus (Str2Reg "c")) (RegexPlus (Str2Reg "dd"))) (RegexPlus (RegexStar (Str2Reg "e"))))))))))))))
(assert (<= 326 (Length var0)))
(check-sat)